<CONFIG>
	<PRINCIPAL>
			<X>3</X>
			<Y>45</Y>
			<WIDTH>1225</WIDTH>
			<HEIGHT>695</HEIGHT>
			<INDEXADOR>TRUE</INDEXADOR>
			<TOOLBARSDOCKWIDGETS>AAAA/wAAAAD9AAAAAQAAAAAAAAE0AAACZPwCAAAAAvsAAAASAEkAbgBkAGUAeABhAGQAbwByAQAAAD8AAACPAAAAXAEAAAX7AAAAAAEAAADRAAAB0gAAABwBAAAFAAADkgAAAmQAAAAEAAAABAAAAAgAAAAI/AAAAAEAAAACAAAAAwAAABAATABpAHMAdABhAGQAbwBzAQAAAAD/////AAAAAAAAAAAAAAAMAEYAaQBjAGgAYQBzAQAAAk3/////AAAAAAAAAAAAAAAQAEEAdgBhAG4AegBhAGQAYQEAAASS/////wAAAAAAAAAA</TOOLBARSDOCKWIDGETS>
			<MAXIMIZED>FALSE</MAXIMIZED>
	</PRINCIPAL>
	<VENTANA>
		<VNAME>ArticuloListBase</VNAME>
		<VX>38</VX>
		<VY>22</VY>
		<VWIDTH>632</VWIDTH>
		<VHEIGHT>452</VHEIGHT>
		<VVISIBLE>TRUE</VVISIBLE>
		<VMAXIMIZED>FALSE</VMAXIMIZED>
		<VACTIVEWINDOW>FALSE</VACTIVEWINDOW>
	</VENTANA>
	<VENTANA>
		<VNAME>ClientsListBase</VNAME>
		<VX>95</VX>
		<VY>104</VY>
		<VWIDTH>632</VWIDTH>
		<VHEIGHT>452</VHEIGHT>
		<VVISIBLE>TRUE</VVISIBLE>
		<VMAXIMIZED>FALSE</VMAXIMIZED>
		<VACTIVEWINDOW>FALSE</VACTIVEWINDOW>
	</VENTANA>
	<VENTANA>
		<VNAME>ProveedorListBase</VNAME>
		<VX>148</VX>
		<VY>165</VY>
		<VWIDTH>632</VWIDTH>
		<VHEIGHT>452</VHEIGHT>
		<VVISIBLE>FALSE</VVISIBLE>
		<VMAXIMIZED>FALSE</VMAXIMIZED>
		<VACTIVEWINDOW>FALSE</VACTIVEWINDOW>
	</VENTANA>
	<VENTANA>
		<VNAME>PresupuestosListBase</VNAME>
		<VX>22</VX>
		<VY>209</VY>
		<VWIDTH>632</VWIDTH>
		<VHEIGHT>452</VHEIGHT>
		<VVISIBLE>FALSE</VVISIBLE>
		<VMAXIMIZED>FALSE</VMAXIMIZED>
		<VACTIVEWINDOW>FALSE</VACTIVEWINDOW>
	</VENTANA>
	<VENTANA>
		<VNAME>PedidosClienteListBase</VNAME>
		<VX>10</VX>
		<VY>10</VY>
		<VWIDTH>612</VWIDTH>
		<VHEIGHT>432</VHEIGHT>
		<VVISIBLE>FALSE</VVISIBLE>
		<VMAXIMIZED>FALSE</VMAXIMIZED>
		<VACTIVEWINDOW>FALSE</VACTIVEWINDOW>
	</VENTANA>
	<VENTANA>
		<VNAME>TicketClienteListBase</VNAME>
		<VX>0</VX>
		<VY>0</VY>
		<VWIDTH>632</VWIDTH>
		<VHEIGHT>452</VHEIGHT>
		<VVISIBLE>FALSE</VVISIBLE>
		<VMAXIMIZED>FALSE</VMAXIMIZED>
		<VACTIVEWINDOW>FALSE</VACTIVEWINDOW>
	</VENTANA>
	<VENTANA>
		<VNAME>FacturasListBase</VNAME>
		<VX>10</VX>
		<VY>10</VY>
		<VWIDTH>632</VWIDTH>
		<VHEIGHT>452</VHEIGHT>
		<VVISIBLE>FALSE</VVISIBLE>
		<VMAXIMIZED>FALSE</VMAXIMIZED>
		<VACTIVEWINDOW>FALSE</VACTIVEWINDOW>
	</VENTANA>
	<VENTANA>
		<VNAME>CobrosListBase</VNAME>
		<VX>236</VX>
		<VY>86</VY>
		<VWIDTH>632</VWIDTH>
		<VHEIGHT>452</VHEIGHT>
		<VVISIBLE>FALSE</VVISIBLE>
		<VMAXIMIZED>FALSE</VMAXIMIZED>
		<VACTIVEWINDOW>FALSE</VACTIVEWINDOW>
	</VENTANA>
	<VENTANA>
		<VNAME>PedidosProveedorListBase</VNAME>
		<VX>10</VX>
		<VY>10</VY>
		<VWIDTH>612</VWIDTH>
		<VHEIGHT>432</VHEIGHT>
		<VVISIBLE>FALSE</VVISIBLE>
		<VMAXIMIZED>FALSE</VMAXIMIZED>
		<VACTIVEWINDOW>FALSE</VACTIVEWINDOW>
	</VENTANA>
	<VENTANA>
		<VNAME>AlbaranesProveedorListBase</VNAME>
		<VX>0</VX>
		<VY>0</VY>
		<VWIDTH>632</VWIDTH>
		<VHEIGHT>452</VHEIGHT>
		<VVISIBLE>FALSE</VVISIBLE>
		<VMAXIMIZED>FALSE</VMAXIMIZED>
		<VACTIVEWINDOW>FALSE</VACTIVEWINDOW>
	</VENTANA>
	<VENTANA>
		<VNAME>FacturasProveedorListBase</VNAME>
		<VX>10</VX>
		<VY>10</VY>
		<VWIDTH>612</VWIDTH>
		<VHEIGHT>432</VHEIGHT>
		<VVISIBLE>FALSE</VVISIBLE>
		<VMAXIMIZED>FALSE</VMAXIMIZED>
		<VACTIVEWINDOW>FALSE</VACTIVEWINDOW>
	</VENTANA>
	<VENTANA>
		<VNAME>PagosListBase</VNAME>
		<VX>221</VX>
		<VY>134</VY>
		<VWIDTH>632</VWIDTH>
		<VHEIGHT>452</VHEIGHT>
		<VVISIBLE>FALSE</VVISIBLE>
		<VMAXIMIZED>FALSE</VMAXIMIZED>
		<VACTIVEWINDOW>FALSE</VACTIVEWINDOW>
	</VENTANA>
</CONFIG>
